System
1.0
3.8114364321417686 0.0 0.0
0.0 6.105937959877644 -0.1432562071003751
0.0 -0.0244931125279313 7.551084446229577
Ni Te
6 4
direct
0.24999999999999997 0.2885213091631489 0.6354309692664298 
0.7499999999999999 0.7114786908368511 0.36456903073357033 
0.24999999999999997 0.0080805790835277 0.37071230508688213 
0.7499999999999999 0.9919194209164722 0.629287694913118 
0.24999999999999997 0.9941329696331463 0.8774102833701926 
0.7499999999999999 0.005867030366853399 0.12258971662980699 
0.24999999999999997 0.7175196996728425 0.11835822745805179 
0.7499999999999999 0.2824803003271577 0.8816417725419476 
0.24999999999999997 0.7125856788066884 0.6192643282192467 
0.7499999999999999 0.2874143211933116 0.38073567178075285 
