System
1.0
-0.0 4.326757913323647 4.326757913323647
4.326757913323647 -0.0 4.326757913323647
4.326757913323647 4.326757913323647 0.0
Ca Be W
4 1 1
direct
0.12651687616680074 0.6244947079443989 0.624494707944399 
0.6244947079443989 0.6244947079443989 0.6244947079443989 
0.6244947079443989 0.12651687616680074 0.624494707944399 
0.6244947079443989 0.6244947079443989 0.12651687616680074 
0.0 0.0 0.0 
0.25 0.25 0.25 
