System
1.0
-0.0 5.040771484524319 5.040771484524319
5.040771484524319 0.0 5.040771484524319
5.040771484524319 5.040771484524319 0.0
Ba Hg Pb
4 1 1
direct
0.1225216175990277 0.6258264608003209 0.6258264608003209 
0.6258264608003209 0.6258264608003209 0.6258264608003209 
0.6258264608003209 0.1225216175990277 0.6258264608003209 
0.6258264608003209 0.6258264608003209 0.12252161759902766 
0.25 0.25 0.25 
0.0 0.0 0.0 
