System
1.0
9.407270982425844 0.0171637632074009 -0.0
-0.1420147938114395 9.406214283443367 -0.0
-0.0 -0.0 10.910854580737215
Na Si Se
8 8 20
direct
0.0733132290323325 0.4176318340168439 0.7500000000000001 
0.9266867709676674 0.5823681659831563 0.25 
0.4176318340172705 0.073313229031779 0.7500000000000001 
0.5823681659827293 0.9266867709682209 0.25 
0.1490150541430486 0.8509849458571039 0.5 
0.8509849458569516 0.1490150541428961 0.0 
0.8509849458569516 0.1490150541428961 0.5 
0.1490150541430486 0.8509849458571039 0.0 
0.2542939381419508 0.254293938142708 0.0806181566406065 
0.7457060618580491 0.7457060618572918 0.5806181566406066 
0.2542939381419508 0.254293938142708 0.41938184335939327 
0.7457060618580491 0.7457060618572918 0.9193818433593933 
0.41036583124836795 0.6826777559805023 0.7500000000000001 
0.3173222440192824 0.5896341687508452 0.25 
0.6826777559807173 0.4103658312491549 0.7500000000000001 
0.5896341687516325 0.3173222440194977 0.25 
0.20859396551442239 0.4966279839346694 0.0753541618279579 
0.4966279839356388 0.20859396551589807 0.0753541618279579 
0.5033720160643609 0.7914060344840947 0.5753541618279583 
0.20859396551442239 0.4966279839346694 0.42464583817204204 
0.7914060344855705 0.503372016065331 0.9246458381720417 
0.5033720160643609 0.7914060344840947 0.9246458381720417 
0.4966279839356388 0.20859396551589807 0.42464583817204204 
0.7914060344855705 0.503372016065331 0.5753541618279583 
0.1502544060806899 0.15025440608186216 0.25 
0.17853865301258198 0.725607332055336 0.7500000000000001 
0.15566541081662147 0.1556654108171064 0.9147195295504303 
0.8443345891833786 0.8443345891828942 0.4147195295504303 
0.15566541081662147 0.1556654108171064 0.5852804704495695 
0.8443345891833786 0.8443345891828942 0.0852804704495769 
0.7256073320559903 0.17853865301374758 0.7500000000000001 
0.2743926679440097 0.8214613469862517 0.25 
0.44096017868318516 0.4409601786840314 0.7500000000000001 
0.8214613469874184 0.2743926679446638 0.25 
0.8497455939193103 0.8497455939181378 0.7500000000000001 
0.5590398213168145 0.5590398213159686 0.25 
