System
1.0
-0.0 4.517300851474054 4.517300851474054
4.517300851474054 -0.0 4.517300851474054
4.517300851474054 4.517300851474054 0.0
Be Re Bi
1 1 4
direct
0.0 0.0 0.0 
0.25 0.25 0.25 
0.12379293854128284 0.6254026871529048 0.6254026871529049 
0.6254026871529048 0.6254026871529048 0.6254026871529048 
0.6254026871529048 0.12379293854128279 0.6254026871529049 
0.6254026871529048 0.6254026871529048 0.12379293854128282 
