System
1.0
3.790914410660539 -0.0 0.0
0.0 3.790914410660539 0.0
-0.0 -0.0 3.790914410660539
Sr Fe O
1 1 3
direct
0.4999990000000025 0.4999990000000025 0.4999990000000025 
0.0 0.0 0.0 
0.4999990000000025 0.0 0.0 
0.0 0.4999990000000025 0.0 
0.0 0.0 0.4999990000000025 
