System
1.0
3.5058938597621094 -3.081249e-10 2.0241289627124215
1.1686312862968669 3.3053879820023613 2.0241289627124215
-8.715088e-10 -6.162497e-10 4.048256928443838
Al As
1 1
direct
0.0 0.0 0.0 
0.24999999999999997 0.25 0.24999999999999997 
