System
1.0
0.0 4.893247728183244 4.893247728183244
4.893247728183244 0.0 4.893247728183244
4.893247728183244 4.893247728183244 0.0
Ba Ca Re
4 1 1
direct
0.11911220585518423 0.6269622647149372 0.6269622647149372 
0.6269622647149372 0.6269622647149372 0.6269622647149372 
0.6269622647149372 0.11911220585518423 0.6269622647149372 
0.6269622647149372 0.6269622647149372 0.11911220585518421 
0.25 0.25 0.25 
0.0 0.0 0.0 
