System
1.0
9.067075684180468 -0.0 0.0
-0.0 9.601395097069043 0.0
0.0 0.0 13.805400088543228
Pd Se Cl
4 32 8
direct
0.49999999999999994 0.0 0.0 
0.49999999999999994 0.5 0.5 
0.0 0.5 0.0 
0.0 0.0 0.5 
0.0890296642614067 0.3835712458566864 0.3735345418025448 
0.41097033573859354 0.8835712458566864 0.6264654581974549 
0.5890296642614069 0.6164287541433134 0.1264654581974553 
0.7039670606211823 0.4830887496383727 0.3833625591369578 
0.5880171858828603 0.3116584573099965 0.2715868211667293 
0.41097033573859354 0.3835712458566864 0.8735345418025451 
0.0890296642614067 0.8835712458566864 0.1264654581974553 
0.9119828141171397 0.3116584573099965 0.7715868211667294 
0.3770896109922794 0.1563811136145417 0.4724705583331981 
0.1229103890077205 0.6563811136145415 0.5275294416668015 
0.7960329393788177 0.4830887496383727 0.8833625591369582 
0.6229103890077202 0.8436188863854585 0.5275294416668015 
0.5880171858828603 0.8116584573099959 0.2284131788332707 
0.08801718588286078 0.6883415426900041 0.2284131788332707 
0.7960329393788177 0.983088749638372 0.6166374408630418 
0.4119828141171393 0.6883415426900041 0.7284131788332705 
0.4119828141171393 0.1883415426900036 0.7715868211667294 
0.2960329393788176 0.0169112503616275 0.8833625591369582 
0.1229103890077205 0.1563811136145417 0.9724705583331985 
0.9109703357385931 0.6164287541433134 0.6264654581974549 
0.20396706062118217 0.5169112503616279 0.116637440863042 
0.8770896109922798 0.3436188863854581 0.4724705583331981 
0.8770896109922798 0.8436188863854585 0.0275294416668019 
0.3770896109922794 0.6563811136145415 0.0275294416668019 
0.5890296642614069 0.116428754143314 0.3735345418025448 
0.08801718588286078 0.1883415426900036 0.2715868211667293 
0.20396706062118217 0.0169112503616275 0.3833625591369578 
0.9109703357385931 0.116428754143314 0.8735345418025451 
0.2960329393788176 0.5169112503616279 0.6166374408630418 
0.9119828141171397 0.8116584573099959 0.7284131788332705 
0.6229103890077202 0.3436188863854581 0.9724705583331985 
0.7039670606211823 0.983088749638372 0.116637440863042 
0.39703356529970957 0.6589107687488639 0.3911200742214518 
0.8970335652997097 0.3410892312511363 0.1088799257785481 
0.8970335652997097 0.8410892312511361 0.3911200742214518 
0.10296643470029009 0.1589107687488638 0.6088799257785472 
0.39703356529970957 0.1589107687488638 0.1088799257785481 
0.6029664347002902 0.3410892312511363 0.6088799257785472 
0.10296643470029009 0.6589107687488639 0.8911200742214528 
0.6029664347002902 0.8410892312511361 0.8911200742214528 
