System
1.0
5.140164879556414 0.3718366767311976 2.6490934348058945
1.7744180851376485 4.838490976920333 2.6490933997374855
0.4934612210752001 0.3718367213762913 5.761552875939102
Ag I O
2 1 6
direct
0.7883772698439487 0.788377269837433 0.7883772698565537 
0.21162273015605146 0.21162273016256714 0.21162273014344626 
0.0 0.0 0.0 
0.9094705607569298 0.1957406684587681 0.651908172993707 
0.6519081730319839 0.9094705607564962 0.19574066846158192 
0.19574066844088386 0.6519081730235854 0.9094705607570219 
0.09052943924307054 0.8042593315412317 0.3480918270062929 
0.3480918269680161 0.0905294392435039 0.8042593315384179 
0.8042593315591162 0.3480918269764146 0.09052943924297818 
