System
1.0
5.157077730332642 0.0020004753718976 0.0
-0.6195717699670901 5.315460223594058 0.0
0.0 0.0 5.483903388538411
Tb Ta O
2 2 8
direct
4.81509550042249e-19 0.75 0.7648789999795589 
-9.95979133970455e-19 0.24999999999999997 0.2351210000204415 
0.5 0.24999999999999997 0.6945799355493159 
0.5 0.7499999999999999 0.305420064450684 
0.7322478341383682 0.0087980658316295 0.5618411666177799 
0.26775216586163164 0.49120193416837066 0.5618411666177799 
0.2677521658616316 0.9912019341683703 0.43815883338222034 
0.7322478341383681 0.5087980658316296 0.43815883338222034 
0.2512380081779776 0.6003034639861332 0.0820277804943317 
0.7487619918220227 0.8996965360138666 0.0820277804943317 
0.7487619918220229 0.39969653601386673 0.9179722195056683 
0.2512380081779776 0.10030346398613328 0.9179722195056683 
