System
1.0
4.927229198330356 -0.0 -0.0
-2.463614599165178 4.267105721364658 -0.0
-0.0 0.0 4.907865140811081
Cd As O
1 2 6
direct
0.0 0.0 0.0 
0.6666669999999968 0.3333330000000032 0.5 
0.33333300000000315 0.6666669999999968 0.5 
0.6241909675563854 0.6241909675563982 0.7119171876346506 
0.37580903244362784 0.0 0.7119171876346506 
-1.298016336016139e-14 0.3758090324436018 0.7119171876346506 
0.6241909675563723 0.0 0.2880828123653496 
1.3023651329547014e-14 0.6241909675563982 0.2880828123653496 
0.3758090324436148 0.3758090324436018 0.2880828123653496 
