System
1.0
1.6777483798834445 -2.9059452409270157 -1.1e-15
1.6777483798834438 2.9059452409270126 -7e-16
-6.5e-15 -8e-16 6.220805465667012
V Se
1 2
direct
0.0 0.0 0.0 
0.6666669999999968 0.3333330000000032 0.7479606991085345 
0.3333330000000032 0.6666669999999968 0.252039300891465 
