System
1.0
3.292134155794691 0.0 0.0
-1.6460670778973454 2.8510786681143565 -3.615752048e-06
0.0 -0.0001768206441563 34.978246270650075
Mo W Se S
3 1 6 2
direct
0.3333192249247229 0.6666384498494459 0.0966675137812058 
0.6666558392026922 0.3333126784053811 0.2791091321598709 
0.6666926464398288 0.3333852928796507 0.6584266681105794 
0.3333321581155246 0.666664316231042 0.468712621722382 
0.3333230348691514 0.6666470697383001 0.3273013286877133 
0.3333590853838843 0.6667201707677635 0.7065686651425439 
0.6666558450522622 0.3333116901045159 0.4202334807678751 
0.6666765519168195 0.3333521038336415 0.5171906710959798 
0.3333210915930135 0.6666421831860199 0.23092332016136433 
0.3333560781404684 0.6667131562809414 0.6102231914914819 
0.6666426939013361 0.33328538780266426 0.0528105185440566 
0.6666647504603075 0.33332850092061717 0.1405808883349591 
