System
1.0
5.587070827330502 -0.006443663978878 8.473581541003853
2.5373192932596913 4.977690990539769 8.473581542763228
-0.0105307188315544 -0.0064436553469877 10.149720526368277
Ba Ce Mn O
4 1 3 12
direct
0.28264367693988574 0.28264367693994413 0.2826436769399879 
0.1310808696891535 0.1310808696891073 0.1310808696890726 
0.7173563230601145 0.7173563230600561 0.7173563230600122 
0.8689191303108464 0.8689191303108927 0.8689191303109276 
0.0 0.0 0.0 
0.4140467937920819 0.4140467937934521 0.4140467937944797 
0.5859532062079178 0.5859532062065482 0.5859532062055202 
0.5000000000000001 0.5000000000000001 0.49999999999999983 
0.7768348018841693 0.3112300725269809 0.7768348018805026 
0.6058084472441644 0.6058084472425342 0.16339896390998823 
0.163398963908445 0.6058084472430464 0.6058084472438565 
0.3941915527558357 0.3941915527574657 0.8366010360900124 
0.8366010360915549 0.39419155275695367 0.39419155275614365 
0.22316519811385446 0.223165198118644 0.6887699274751438 
0.39419155275677753 0.8366010360895119 0.39419155275759765 
0.3112300725235278 0.7768348018830311 0.7768348018841541 
0.6058084472432221 0.16339896391048817 0.6058084472424022 
0.7768348018861453 0.7768348018813561 0.3112300725248564 
0.6887699274764723 0.2231651981169689 0.22316519811584606 
0.2231651981158307 0.6887699274730187 0.22316519811949784 
