System
1.0
3.93712543178282 0.0 2.273100275741533
1.3123751439276066 3.7119571065192623 2.273100275741533
0.0 0.0 4.546200551483066
Na I
1 1
direct
0.0 0.0 0.0 
0.5 0.5 0.5 
