System
1.0
0.0 4.901572410735 4.901572410735
4.901572410735 0.0 4.901572410735
4.901572410735 4.901572410735 0.0
Ba Te Se
4 1 1
direct
0.12515186443486964 0.6249493785217126 0.6249493785217126 
0.6249493785217126 0.6249493785217126 0.6249493785217126 
0.6249493785217125 0.12515186443486964 0.6249493785217127 
0.6249493785217126 0.6249493785217126 0.12515186443486961 
0.0 0.0 0.0 
0.25 0.25 0.25 
