System
1.0
4.157436115454804 -0.0 0.0
-0.0 7.038494037846648 0.0
0.0 0.0 7.411178065479046
Tb Mn Si
4 4 4
direct
0.25 0.5014870121743014 0.1863876024079978 
0.75 0.49851298782569875 0.8136123975920022 
0.25 0.0014870121743013 0.3136123975920026 
0.75 0.9985129878256985 0.6863876024079979 
0.75 0.8608859093979077 0.06027225572734521 
0.25 0.1391140906020922 0.939727744272655 
0.75 0.3608859093979077 0.43972774427265476 
0.25 0.6391140906020923 0.5602722557273451 
0.25 0.792634730215007 0.8919146343653592 
0.75 0.207365269784993 0.10808536563464112 
0.25 0.2926347302150071 0.6080853656346409 
0.75 0.707365269784993 0.3919146343653588 
