System
1.0
-4.345198747538248 0.0 0.0
0.0 -9.206474735930364 -0.507555
0.0 0.0 29.727439
Pr Os I
6 2 6
direct
0.75 0.8835221481146582 0.0226636919869307 
0.25 0.0991024187842433 0.1152975677647124 
0.25 0.686837970931804 0.1135020861188097 
0.75 0.9008975812157567 0.211923432235282 
0.75 0.3131620290681963 0.21371891388119194 
0.25 0.1164778518853415 0.3045573080130709 
0.75 0.8892655940756343 0.11272187412771931 
0.25 0.11073440592436569 0.2144981258722847 
0.75 0.395062443108361 0.1056146053917653 
0.25 0.6049375568916393 0.22160639460823622 
0.25 0.6274904954043626 0.002605934508165201 
0.25 0.1307048335698528 0.0005133972796294 
0.75 0.8692951664301471 0.326707602720365 
0.75 0.3725095045956378 0.3246150654918362 
