System
1.0
4.376835486482439 0.0086562096165887 7.148251977291244
2.0211490103296166 3.8822313794698684 7.148251977291244
0.0142338540946976 0.008656214510917 8.38176620441039
Bi Sb
3 1
direct
0.11687114695010013 0.11687114695010009 0.11687114695134818 
0.885057350916569 0.8850573509165686 0.8850573509144881 
0.3806761740317465 0.3806761740317465 0.3806761740305207 
0.6173953281015849 0.6173953281015848 0.6173953281036431 
