System
1.0
-3.8981219900182933 -3.7237505e-09 0.0
1.9490614894678115 -3.6334581954451775 -0.225356
0.0 0.0 26.995257
Y C I
2 2 2
direct
0.1450516824699669 0.2901033649402804 0.1809884416655423 
0.8549483175300333 0.7098966350597203 0.07814155833445671 
0.5762279408645535 0.1524558817340315 0.11747981722984471 
0.4237720591354465 0.8475441182659686 0.1416501827701543 
0.8256981468688573 0.6513962937376792 0.2586930813508133 
0.1743018531311427 0.3486037062623211 0.0004359186491882004 
