System
1.0
-4.567116040288575 -3.63932726054e-05 0.0
2.283589523737267 3.9552212995531733 0.0
0.0 0.0 -23.735167
Pb I
1 2
direct
-1.5562735766000001e-06 1.5876587073999998e-06 0.9213333281208262 
0.33333085954651603 0.666668947434045 0.8409323949747657 
0.6666706967270606 0.3333294649072476 0.0016692769044118 
