System
1.0
3.8505111896006228 0.0 0.0
0.0 3.8505111896006228 0.0
0.0 0.0 23.172608
Cu Br
2 2
direct
0.49999999999999994 0.49999999999999994 0.0684559999999976 
0.0 0.0 0.0684559999999976 
0.0 0.49999999999999994 0.1396106273078921 
0.49999999999999994 0.0 0.9973013726921103 
