System
1.0
0.0 -3.9587610833154616 0.0
-6.655928089533787 0.0 0.0
0.0 0.0 -23.94045079597872
Si S
4 4
direct
0.0 0.0 0.5217263648738928 
0.0 0.5 0.5217263648738928 
0.5 0.0 0.4661843287970869 
0.5 0.5 0.4661843287970869 
0.0524900550457348 0.7500000000000001 0.5792751627500841 
0.9475099449542649 0.25 0.5792751627500841 
0.4474867899417421 0.7500000000000001 0.40863414357892813 
0.5525132100582582 0.25 0.40863414357892813 
