System
1.0
10.37325585559557 -2.271858823e-07 -0.0
-5.186627729353156 8.98350272256319 -0.0
-0.0 -0.0 8.066689507668043
K Mn Mo O
8 2 8 30
direct
0.9123842307283675 0.6114985518225908 0.1339521687423395 
0.3885014481774494 0.3008856689058713 0.1339521687423395 
0.087615769271632 0.3885014481774088 0.8660478312576608 
0.6114985518225496 0.6991143310941279 0.8660478312576608 
0.0 0.0 0.0 
0.3008856689058241 0.9123842307284561 0.8660478312576608 
0.6991143310941766 0.08761576927154349 0.1339521687423395 
0.0 0.0 0.5 
0.6666669999999968 0.3333330000000032 0.458004875613409 
0.3333330000000032 0.6666669999999967 0.5419951243865911 
0.9839765026346371 0.6598605056239827 0.6389064633788313 
0.32411599701177846 0.9839765026335844 0.3610935366211687 
0.6666669999999968 0.3333330000000032 0.856789420271389 
0.3401394943771411 0.3241159970096013 0.6389064633788313 
0.3333330000000032 0.6666669999999967 0.143210579728611 
0.6758840029882213 0.0160234973664156 0.6389064633788313 
0.016023497365362398 0.3401394943760165 0.3610935366211687 
0.6598605056228588 0.6758840029903989 0.3610935366211687 
0.3640873690748322 0.507511602768055 0.6650579195639872 
0.6359126309251679 0.4924883972319457 0.3349420804360131 
0.007904313538716009 0.2693499819917769 0.5595926856327027 
0.20894259794521883 0.9912184382594202 0.2044301125771209 
0.14342423369595786 0.6359126309239356 0.6650579195639872 
0.2614456784517248 0.992095686462963 0.5595926856327027 
0.7910574020547811 0.008781561740579499 0.7955698874228793 
0.8255024848523503 0.3463696232922944 0.9500441555374498 
0.5195005376208852 0.33180695359634343 0.6554769713587292 
0.7385543215482749 0.007904313537036299 0.4404073143672971 
0.73065001800956 0.7385543215452576 0.5595926856327027 
0.1744975151476574 0.6536303767077055 0.0499558444625507 
0.008781561742734994 0.21772415969064757 0.2044301125771209 
0.3463696232960066 0.5208671284469394 0.0499558444625507 
0.2693499819904395 0.2614456784547415 0.4404073143672971 
0.8565757663040421 0.3640873690760644 0.3349420804360131 
0.4804994623791147 0.6681930464036567 0.3445230286412709 
0.9920956864612848 0.7306500180082224 0.4404073143672971 
0.8123064159775117 0.4804994623825481 0.6554769713587292 
0.5075116027707894 0.1434242336919898 0.3349420804360131 
0.7822758403120454 0.7910574020499315 0.2044301125771209 
0.4924883972292096 0.8565757663080095 0.6650579195639872 
0.3318069535983971 0.8123064159788912 0.3445230286412709 
0.1876935840224884 0.5195005376174519 0.3445230286412709 
0.6681930464016037 0.1876935840211082 0.6554769713587292 
0.5208671284436628 0.1744975151546455 0.9500441555374498 
0.217724159687954 0.2089425979500682 0.7955698874228793 
0.47913287155633694 0.8255024848453619 0.0499558444625507 
0.6536303767039934 0.4791328715530608 0.9500441555374498 
0.9912184382572647 0.782275840309352 0.7955698874228793 
