System
1.0
-6.427139410165216 -0.0 0.0
3.213569705082608 5.5660662314110665 0.0
0.0 0.0 -23.432263
In Cu P Se
1 1 2 6
direct
0.0 0.0 0.8507519999999998 
0.33333400000000074 0.6666680000000015 0.8507519999999998 
0.6666659999999994 0.3333319999999986 0.8021627995650195 
0.6666659999999994 0.3333319999999986 0.8993412004349804 
0.34103292942720453 0.3485144915427442 0.777138656542191 
0.0074815621257882155 0.6589670706000875 0.777138656542191 
0.007481562115539614 0.3485144915427442 0.9243653434578087 
0.6514855084742998 0.6589670706000875 0.9243653434578087 
0.3410329294101608 0.9925184378571682 0.9243653434578087 
0.6514855084470076 0.9925184378571682 0.777138656542191 
