System
1.0
4.089078911208881 0.0 0.0
-0.0 4.089078911208881 -0.0
0.0 -0.0 4.089078911208881
Dy B
1 6
direct
0.0 0.0 0.0 
0.19861408290185742 0.5 0.5 
0.5 0.8013859170981429 0.5 
0.5 0.19861408290185742 0.5 
0.8013859170981429 0.5 0.5 
0.5 0.5 0.19861408290185742 
0.5 0.5 0.8013859170981429 
