System
1.0
2.8173501021142346 -0.0 0.0
-1.4086750510571173 2.439896157530945 0.0
0.0 0.0 24.551775
Co O
1 2
direct
0.2690539999999971 0.9290120000000003 0.0926970000000011 
0.6023870000000002 0.595678999999997 0.1307621356947131 
0.9357210000000009 0.26234500000000344 0.0546328643052866 
