System
1.0
6.850665464204784 -0.0 0.0
0.0 9.151330054099736 0.0
0.0 0.0 11.686961966899378
Ba Ge
8 16
direct
0.7499999999999999 0.9851651816728333 0.3084537577307548 
0.7499999999999999 0.4851651816728332 0.1915462422692452 
0.25 0.5148348183271669 0.8084537577307543 
0.7499999999999999 0.1558692741654669 0.9069863755111541 
0.25 0.8441307258345327 0.093013624488846 
0.7499999999999999 0.6558692741654674 0.5930136244888458 
0.25 0.344130725834533 0.4069863755111539 
0.25 0.0148348183271669 0.6915462422692455 
0.25 0.694612273611149 0.5413297451577691 
0.7499999999999999 0.305387726388851 0.45867025484223106 
0.25 0.1946122736111491 0.9586702548422308 
0.7499999999999999 0.805387726388851 0.041329745157768896 
0.9380394582083632 0.3078244843922284 0.6495109575677563 
0.25 0.4263194289212542 0.09264185587542718 
0.7499999999999999 0.5736805710787457 0.9073581441245727 
0.9380394582083632 0.8078244843922286 0.8504890424322437 
0.4380394582083632 0.1921755156077715 0.1495109575677566 
0.5619605417916368 0.3078244843922284 0.6495109575677563 
0.0619605417916369 0.6921755156077715 0.3504890424322434 
0.0619605417916369 0.1921755156077715 0.1495109575677566 
0.5619605417916368 0.8078244843922286 0.8504890424322437 
0.4380394582083632 0.6921755156077715 0.3504890424322434 
0.7499999999999999 0.0736805710787458 0.5926418558754273 
0.25 0.9263194289212543 0.40735814412457266 
