System
1.0
5.464512229851642 0.0 -2.0923452919299104
0.0 6.906605401032501 0.0
-0.0012121447362589 0.0 8.409227503444455
Fe H Cl O
2 16 4 8
direct
-6.947425086243453e-21 0.5 0.5 
0.0 0.0 0.0 
0.3704220527933794 0.7709015610772086 -0.0010484401540996923 
0.6295779472066204 0.2709015610772079 0.5010484401540996 
0.6295779472066204 0.2290984389227916 0.0010484401540997218 
0.37213781468933793 0.7745701414722783 0.1852646344624757 
0.6278621853106623 0.2745701414722781 0.3147353655375242 
0.6278621853106623 0.2254298585277219 0.8147353655375242 
0.37213781468933793 0.7254298585277219 0.6852646344624759 
0.37042205279337936 0.7290984389227916 0.4989515598459002 
0.10949047482625232 0.4266152153389027 0.2065998395395252 
0.10949047482625232 0.07338478466109781 0.7065998395395254 
0.8905095251737484 0.5733847846610982 0.7934001604604746 
0.11267596631551893 0.0730870948361732 0.3480346354865247 
0.887324033684481 0.5730870948361723 0.15196536451347561 
0.887324033684481 0.9269129051638278 0.6519653645134749 
0.11267596631551893 0.42691290516382663 0.8480346354865251 
0.8905095251737484 0.9266152153389019 0.29340016046047496 
0.3231362840580268 0.2626170350373292 0.08026835330900871 
0.6768637159419743 0.7626170350373289 0.4197316466909916 
0.6768637159419741 0.7373829649626711 0.9197316466909912 
0.32313628405802675 0.23738296496267114 0.5802683533090088 
0.7395144265326714 0.2806030933720178 0.43514676387097423 
0.0013585342591274003 0.5004593291738682 0.7502058507751245 
0.9986414657408726 0.0004593291738687 0.7497941492248755 
0.9986414657408726 0.4995406708261317 0.24979414922487453 
0.0013585342591274003 0.9995406708261318 0.2502058507751251 
0.26048557346732837 0.7193969066279823 0.5648532361290265 
0.7395144265326714 0.21939690662798203 0.9351467638709735 
0.26048557346732837 0.7806030933720179 0.0648532361290261 
