System
1.0
3.3542337275744103 0.0 0.0
-1.6771168637872051 2.904850045503021 0.0002624763854255
0.0 0.0027191662067697 29.227006366170723
Te Mo W Se S
2 2 1 2 2
direct
0.3332869375319439 0.6665748750638851 0.40880470960271253 
0.3334050587801155 0.6668121175602401 0.2788667649202174 
0.3335186248083656 0.6670362496167267 0.11458088390572692 
0.6666801663591748 0.33335933271835083 0.3438741864905265 
0.3331138284834239 0.6662286569668452 0.5825261819744669 
0.6664959135073409 0.3329918270146898 0.5252624785410095 
0.6664002633646019 0.3327995267292049 0.639695963563112 
0.6669034856871763 0.33380597137434753 0.06276093238425431 
0.6667957214778616 0.3335914429557147 0.1664678986179713 
