System
1.0
3.631374852245063 -2.0965748614627038 0.0
-0.0 4.1931497229254076 0.0
0.0 0.0 22.860029
Bi Pt
2 1
direct
0.33333300000000315 0.6666669999999968 0.122798185664739 
0.6666669999999968 0.3333330000000032 0.0023118143352603 
0.0 0.0 0.0625550000000032 
