System
1.0
4.927781968323723 -0.0 0.0
-0.0 6.00787069204336 0.0
0.0 0.0 10.300965906181538
Fe Si O
8 4 16
direct
0.0 0.0 0.0 
0.0 0.5 0.0 
0.5 0.5 0.5 
0.0157990037127402 0.75 0.7259960538387886 
0.5157990037127403 0.25 0.7740039461612113 
0.9842009962872597 0.25 0.2740039461612108 
0.48420099628726 0.75 0.22599605383878907 
0.5 0.0 0.5 
0.5695513893477254 0.75 0.9044038449299105 
0.0695513893477256 0.25 0.5955961550700895 
0.4304486106522744 0.25 0.0955961550700895 
0.9304486106522746 0.75 0.4044038449299106 
0.2621186447345032 0.75 0.4059472083502738 
0.7621186447345026 0.25 0.0940527916497264 
0.21569792728757584 0.46690097029695377 0.66620470723624 
0.7031799812254462 0.75 0.0530850908584951 
0.20317998122544634 0.25 0.4469149091415048 
0.2968200187745536 0.25 0.9469149091415048 
0.7968200187745538 0.75 0.5530850908584951 
0.7156979272875755 0.9669009702969541 0.8337952927637599 
0.21569792728757584 0.0330990297030461 0.66620470723624 
0.2843020727124245 0.46690097029695377 0.1662047072362398 
0.7843020727124245 0.5330990297030459 0.3337952927637606 
0.2843020727124245 0.0330990297030461 0.1662047072362398 
0.7843020727124245 0.9669009702969541 0.3337952927637606 
0.7156979272875755 0.5330990297030459 0.8337952927637599 
0.237881355265497 0.75 0.9059472083502733 
0.7378813552654974 0.25 0.5940527916497265 
