System
1.0
-0.0 5.037541505850243 5.037541505850243
5.037541505850243 -0.0 5.037541505850243
5.037541505850243 5.037541505850243 -0.0
Ba Y Nb
4 1 1
direct
0.12648425569773464 0.6245049147674203 0.6245049147674203 
0.6245049147674203 0.6245049147674203 0.6245049147674203 
0.6245049147674202 0.12648425569773467 0.6245049147674204 
0.6245049147674203 0.6245049147674203 0.1264842556977346 
0.0 0.0 0.0 
0.25 0.25 0.25 
