System
1.0
3.7944202607364415 -6.572128368551494 0.0
3.7944202607364415 6.572128368551494 0.0
0.0 0.0 23.649804
Bi I
2 6
direct
0.6666659999999994 0.33333400000000063 0.0771640000000033 
0.3333340000000008 0.6666659999999993 0.0771640000000033 
-6.175343572506532e-12 0.3363338805287944 -0.00010390327247650002 
0.6636661194773811 0.663666119477381 -0.00010390327247650002 
0.33633388052261914 0.33633388052261903 0.1544309032724786 
0.33633388052879437 -6.1753959737459415e-12 -0.00010390327247650002 
6.175488092234314e-12 0.6636661194712056 0.1544309032724786 
0.6636661194712057 6.17530447875554e-12 0.1544309032724786 
