System
1.0
0.0 5.104615296684174 5.104615296684174
5.104615296684174 -0.0 5.104615296684174
5.104615296684174 5.104615296684174 0.0
Ba Na Ge
4 1 1
direct
0.13101840776817025 0.6229941974106115 0.6229941974106115 
0.6229941974106114 0.6229941974106115 0.6229941974106115 
0.6229941974106114 0.13101840776817034 0.6229941974106115 
0.6229941974106114 0.6229941974106115 0.13101840776817036 
0.0 0.0 0.0 
0.24999999999999997 0.25 0.25 
