System
1.0
0.0 4.936437902689708 4.936437902689708
4.936437902689708 0.0 4.936437902689708
4.936437902689708 4.936437902689708 0.0
Ba Ta Zn
4 1 1
direct
0.12583664735322053 0.624721450882259 0.6247214508822589 
0.624721450882259 0.624721450882259 0.624721450882259 
0.624721450882259 0.12583664735322053 0.6247214508822589 
0.624721450882259 0.624721450882259 0.12583664735322053 
0.25000000000000006 0.25 0.24999999999999997 
0.0 0.0 0.0 
