System
1.0
7.2963518353359165 0.0 0.0
0.0 12.357041682775112 -5.2845586858227165
0.0 -0.0387593429993432 14.224638121809875
K Bi
16 16
direct
0.125438452101316 0.5574636895311021 0.8449171159307716 
0.6338684537730342 0.3596782253356972 0.8853339190028652 
0.8661315462269656 0.8596782253356972 0.8853339190028652 
0.36613154622696553 0.6403217746643027 0.11466608099713507 
0.2960662902109483 0.039071020530381695 0.39736051033689396 
0.796066290210948 0.46092897946961814 0.6026394896631061 
0.7039337097890519 0.9609289794696184 0.602639489663106 
0.20393370978905156 0.5390710205303814 0.39736051033689396 
0.1338684537730343 0.14032177466430276 0.11466608099713509 
0.5686664058386977 0.307266972413607 0.3454207502513825 
0.9313335941613022 0.8072669724136069 0.34542075025138247 
0.43133359416130196 0.6927330275863925 0.6545792497486168 
0.37456154789868407 0.05746368953110199 0.8449171159307716 
0.8745615478986836 0.442536310468898 0.15508288406922857 
0.6254384521013163 0.9425363104688976 0.1550828840692286 
0.0686664058386979 0.1927330275863934 0.6545792497486168 
0.35357049258840095 0.8226316517953188 0.9259824830970296 
0.8535704925884013 0.6773683482046808 0.07401751690297029 
0.386376800673597 0.37165922956753966 0.11659856845111777 
0.8863768006735974 0.1283407704324603 0.8834014315488823 
0.6136231993264025 0.6283407704324603 0.8834014315488823 
0.11362319932640279 0.8716592295675396 0.1165985684511178 
0.06089675710707319 0.27184897169410394 0.38698771652261116 
0.43910324289292674 0.7718489716941044 0.3869877165226111 
0.939103242892927 0.7281510283058954 0.6130122834773885 
0.2913096920645714 0.39144847966356333 0.5800172016622356 
0.7913096920645717 0.10855152033643678 0.41998279833776453 
0.7086903079354282 0.6085515203364366 0.41998279833776453 
0.20869030793542848 0.8914484796635632 0.5800172016622356 
0.1464295074115987 0.32263165179531905 0.9259824830970295 
0.5608967571070729 0.22815102830589604 0.6130122834773886 
0.6464295074115985 0.1773683482046809 0.0740175169029703 
