System
1.0
-4.906075104996936 0.0 0.0
0.0 -5.25317830268697 -0.352987
0.0 0.0 24.194826
Te H O
2 4 8
direct
0.25016923915028133 0.47261445386098927 0.0866694170284717 
0.7498307608497186 0.9726144538609889 0.0866694170284717 
0.0349694928293361 0.6752920397539183 0.1711811682448166 
0.47652232057300686 0.5717220283098532 0.0006120110609495006 
0.5234776794269934 0.0717220283098534 0.0006120110609495 
0.965030507170664 0.17529203975391797 0.1711811682448166 
0.1048260298649813 0.4999823094672256 0.1618368249953722 
0.3952845530999643 0.41003464001501133 0.0119569451327799 
0.9370805581888688 0.2671801551409292 0.06072350665179771 
0.4329195768541214 0.17495237345207526 0.1120201268858096 
0.5670804231458787 0.6749523734520748 0.11202012688580962 
0.062919441811131 0.767180155140929 0.0607235066517977 
0.6047154469000361 0.9100346400150114 0.0119569451327799 
0.8951739701350182 -1.7690532774699996e-05 0.1618368249953722 
