System
1.0
7.843871888963013 0.0 0.0
0.0 12.306037353082845 0.0
0.0 0.0 14.515625711752502
Rb Pd I
8 4 24
direct
0.2876517311753254 0.0070566724919719 0.8604605548901916 
0.7876517311753253 0.49294332750802805 0.6395394451098084 
0.7123482688246747 0.5070566724919717 0.1395394451098083 
0.2123482688246746 0.9929433275080283 0.3604605548901917 
0.7123482688246747 0.9929433275080283 0.1395394451098083 
0.2123482688246746 0.5070566724919717 0.3604605548901917 
0.2876517311753254 0.49294332750802805 0.8604605548901916 
0.7876517311753253 0.0070566724919719 0.6395394451098084 
0.7327242496991095 0.7500000000000001 0.3987015581802947 
0.23272424969910951 0.7500000000000001 0.10129844181970521 
0.2672757503008906 0.25 0.6012984418197055 
0.7672757503008905 0.25 0.8987015581802946 
0.0406164338186982 0.25 0.7895681899883269 
0.2279403266327665 0.5312610072006797 0.1062612079229422 
0.7279403266327666 0.9687389927993204 0.3937387920770576 
0.2279403266327665 0.9687389927993204 0.1062612079229422 
0.7279403266327666 0.5312610072006797 0.3937387920770576 
0.7720596733672334 0.4687389927993204 0.8937387920770576 
0.2720596733672337 0.0312610072006797 0.6062612079229424 
0.4593835661813019 0.7500000000000001 0.2895681899883268 
0.9593835661813017 0.7500000000000001 0.2104318100116731 
0.5406164338186983 0.25 0.7104318100116731 
0.0348150660866638 0.7500000000000001 0.4916181073867261 
0.9854366817349451 0.25 0.2827376533290857 
0.965184933913336 0.25 0.5083818926132739 
0.4651849339133364 0.25 0.9916181073867261 
0.0145633182650555 0.7500000000000001 0.7172623466709144 
0.514563318265055 0.7500000000000001 0.7827376533290856 
0.2720596733672337 0.4687389927993204 0.6062612079229424 
0.4854366817349447 0.25 0.2172623466709143 
0.0446995254154863 0.7500000000000001 0.9192848799281873 
0.5446995254154867 0.7500000000000001 0.5807151200718127 
0.9553004745845133 0.25 0.0807151200718119 
0.4553004745845136 0.25 0.4192848799281881 
0.534815066086664 0.7500000000000001 0.008381892613274 
0.7720596733672334 0.0312610072006797 0.8937387920770576 
