System
1.0
-0.0127275386492899 4.475342287282874 4.475342287282874
4.456801075726424 0.0348234079782807 4.42655690239239
4.456801075726424 4.42655690239239 0.0348234079782807
Li Mn O F
1 5 3 5
direct
0.6472714630906105 0.6084130139340697 0.6084130139340695 
0.9928445264949293 0.9685868196393626 0.9685868196393621 
0.21927918901090712 0.28879130724660956 0.28879130724660956 
0.6389053819101155 0.13349037804761768 0.6135321079330768 
0.6389053819101154 0.6135321079330768 0.13349037804761774 
0.12943749906585614 0.6254210515401791 0.6254210515401791 
0.3837867856040669 0.3998132270233503 0.39981322702335026 
0.8470868829476453 0.3876891490297202 0.3876891490297203 
0.8609676061508488 0.8489324903657344 0.8489324903657341 
0.3870289574388718 0.8716741936695006 0.3921690449931621 
0.38702895743887183 0.3921690449931622 0.8716741936695005 
0.8656843622803222 0.3783813995417081 0.8639037647508528 
0.8656843622803223 0.8639037647508527 0.3783813995417078 
0.3860896443765031 0.8692030522850454 0.8692030522850452 
