System
1.0
5.183435298063158 3.0116827303256017 0.011331
-5.183412084311694 3.0116428521929017 0.011331
0.0 0.0 22.905941
Ti Cl
2 6
direct
0.6565535353295157 0.9783571312184274 0.0634808301357011 
0.9783674933176241 0.6565631235078366 0.0634831367626685 
0.659784417051706 0.6597737521709389 0.1269342975545255 
0.9723918625419157 0.31548948541668914 0.1238843970297998 
0.9753000543823279 0.9753099074428345 8.657192479909998e-05 
0.662480315472372 0.31945017649172164 0.0031021171907289 
0.3154981906320898 0.9723956747468283 0.12388414233810559 
0.31944213127245397 0.6624757490047218 0.0031025070636665998 
