System
1.0
1.7433449914666201 -3.0195615934611317 0.0
1.74334499146662 3.0195615934611317 0.0
0.0 0.0 33.756999
Nb Se
1 2
direct
0.0 0.0 0.3056479999999979 
0.3333330000000032 0.6666669999999968 0.3555394988382513 
0.3333330000000032 0.6666669999999968 0.2557565011617516 
