System
1.0
3.2250494729190726 2.216578e-10 2.163e-13
-1.6125242360333125 2.7929740932668943 -8.4754501616e-06
6.6135e-12 -9.7386036979e-05 34.14068378844537
Mo W Se S
1 3 2 6
direct
0.33331504683701274 0.6666300936741254 0.0934536896030271 
0.33331656497272827 0.6666341299456554 0.47208556491119213 
0.6666698924990063 0.33333978499784117 0.28247993950367123 
0.6666991220003533 0.3333972440007849 0.6548932577640771 
0.33334341592455036 0.6666888318491291 0.3328984548376194 
0.33332779768550075 0.6666565953711356 0.2320623862553914 
0.33337390316228616 0.6667488063245635 0.7006769649140224 
0.6666482437297062 0.33329648745935525 0.0479187308537724 
0.6666490346540366 0.33329706930798436 0.4262562969343839 
0.6666480620607286 0.33329512412140816 0.1390473399063092 
0.6666512247313715 0.33330144946262313 0.5179005541158488 
0.33335669174272836 0.6667143834853922 0.6090748204006833 
