System
1.0
0.0 5.1858714074842 5.1858714074842
5.1858714074842 0.0 5.1858714074842
5.1858714074842 5.1858714074842 -0.0
Ba Na Bi
4 1 1
direct
0.13109962866281805 0.6229667904457299 0.6229667904457298 
0.6229667904457298 0.6229667904457299 0.6229667904457299 
0.6229667904457299 0.13109962866281807 0.6229667904457298 
0.6229667904457299 0.6229667904457298 0.13109962866281805 
0.0 0.0 0.0 
0.25 0.25 0.25 
