System
1.0
6.603532697435508 0.0 -0.0415750874858069
0.0 9.955902882403395 0.0
0.0044710816739729 0.0 13.206224023104014
Rb Ge B O
8 4 16 36
direct
0.7777858233809999 0.376117903491008 0.1187057083032542 
0.2222141766190003 0.8761179034910089 0.8812942916967458 
0.2531982907498552 0.6550670834605686 0.1169029045348798 
0.7468017092501446 0.1550670834605693 0.8830970954651206 
0.7711562998796898 0.15472315617414478 0.36609706525383695 
0.2288437001203109 0.6547231561741447 0.6339029347461628 
0.7068165937997987 0.4308668586656295 0.6263491331759197 
0.2931834062002018 0.9308668586656295 0.3736508668240807 
0.24391577344557389 0.1583872623427114 0.6160546380402592 
0.7560842265544262 0.6583872623427119 0.3839453619597407 
0.741412766158242 0.6475038251270655 0.870574655232724 
0.2585872338417572 0.1475038251270648 0.1294253447672757 
0.1301228262731217 0.3498137861389932 0.7546603337871364 
0.8698771737268781 0.8498137861389933 0.2453396662128629 
0.0463396601938425 0.46248898842371355 0.4261788893820547 
0.9536603398061577 0.9624889884237132 0.5738211106179447 
0.3402904966206497 0.3423283867821033 0.983410486093169 
0.5038803858272851 0.9605298606713598 0.6780782486335202 
0.4961196141727146 0.46052986067135904 0.3219217513664799 
0.65970950337935 0.8423283867821028 0.0165895139068308 
0.19248218168073467 0.3224320210847631 0.2917473044156946 
0.0681522535759205 0.48120799095904404 0.9087155710362855 
0.9318477464240794 0.981207990959045 0.0912844289637152 
0.6529080294686342 0.821527812304966 0.5446524567337122 
0.3470919705313651 0.32152781230496635 0.4553475432662878 
0.39997476218587386 0.48545813102493984 0.8367513044250913 
0.6000252378141266 0.9854581310249392 0.1632486955749095 
0.8075178183192654 0.8224320210847624 0.7082526955843063 
0.7320224119189448 0.7402924571206045 0.6258091367528279 
0.5211478103325705 0.4073436971292412 0.417449501699008 
0.47885218966743 0.9073436971292403 0.5825504983009914 
0.024769273527418693 0.414196987711834 0.32962313653430303 
0.9752307264725887 0.9141969877118337 0.6703768634656968 
0.18922455157303333 0.41777969259329945 0.4939317059619678 
0.8107754484269675 0.917779692593299 0.506068294038032 
0.9886884672631393 0.395218396215941 0.8218819117083555 
0.3254584502102499 0.3946964162656124 0.7508020765031197 
0.011311532736860398 0.8952183962159401 0.1781180882916446 
0.3580342924098509 0.41463430133948126 0.2525759442185763 
0.6419657075901491 0.9146343013394812 0.7474240557814238 
0.5201152497151943 0.8948114217175218 0.082042724260049 
0.4798847502848048 0.3948114217175225 0.9179572757399508 
0.2679775880810553 0.24029245712060518 0.3741908632471727 
0.6745415497897506 0.8946964162656124 0.2491979234968806 
0.23249893467592206 0.565602177869238 0.8741276137934073 
0.5843732140553032 0.7417439240377616 0.9546154584904284 
0.5621941634833837 0.5650987387754844 0.7934764195298604 
0.9380911716252942 0.7528958479694668 0.3142738412192894 
0.0619088283747054 0.2528958479694669 0.6857261587807105 
0.4156267859446964 0.241743924037761 0.0453845415095712 
0.8568548116821844 0.8851139886251781 0.0105546749767847 
0.5752704176207215 0.7400474129222799 0.4594226248182075 
0.4247295823792789 0.2400474129222805 0.5405773751817923 
0.9183470438347942 0.5620093935474862 0.46395858026733455 
0.0816529561652054 0.0620093935474864 0.5360414197326654 
0.09893061297711832 0.056361660273584094 0.046375230400882 
0.9010693870228813 0.5563616602735842 0.9536247695991181 
0.6186506589394938 0.56682727447181 0.2896187281392504 
0.3813493410605066 0.0668272744718108 0.7103812718607492 
0.10427782149274062 0.2439331247631687 0.210066262299143 
0.8957221785072587 0.7439331247631692 0.7899337377008565 
0.4378058365166174 0.065098738775485 0.2065235804701399 
0.7675010653240785 0.0656021778692386 0.1258723862065925 
0.1431451883178161 0.3851139886251782 0.989445325023215 
