System
1.0
-2.2512310528422197 1.4964955426496451 4.920792210337369
2.2512310528422197 -1.4964955426496451 4.920792210337369
2.2512310528422197 1.4964955426496451 -4.920792210337369
Na Cu O
2 1 2
direct
0.6858955420425209 0.18589554204252068 0.5 
0.31410445795747916 0.814104457957479 0.5 
0.0 0.5 0.5 
0.3670049776681319 0.3670049776681319 8.398296503492967e-18 
0.6329950223318683 0.6329950223318683 -2.0407051056528864e-17 
