System
1.0
4.509029640475962 0.0564034813585673 3.028820493652016
1.643488701783796 4.1992227516668 3.0288204823793996
0.0815446486036011 0.0564034838441564 5.431247419233112
Li Sb F
1 1 6
direct
0.5 0.5 0.5000000000000001 
0.0 0.0 0.0 
0.6232581762753454 0.8912834450053471 0.24301028493269985 
0.8912834450184702 0.2430102849208133 0.6232581762479585 
0.7569897150816867 0.3767418237226293 0.10871655498407223 
0.2430102849183137 0.6232581762773706 0.8912834450159282 
0.10871655498153017 0.7569897150791868 0.37674182375204146 
0.37674182372465476 0.10871655499465277 0.7569897150673 
