System
1.0
3.003988857196698 -5.203063523044459 0.0
3.0039905153232285 5.203062565724714 0.0
0.0 0.0 22.812795
Ti Cl
2 6
direct
0.6666659999999993 0.3333340000000007 0.0616454009828724 
0.3333340000000007 0.6666659999999993 0.061653599017123396 
0.6566816018896336 0.6566776541080906 7.12284632005e-05 
-1.9477806330790326e-06 0.3433183981095912 7.12284632005e-05 
0.6566776541089986 -1.9477823157804703e-06 0.12322777153680238 
1.9477806332245863e-06 0.6566816018904088 0.12322777153680238 
0.3433183981103662 0.3433223458919091 0.12322777153680238 
0.3433223458910015 1.947782315791579e-06 7.12284632005e-05 
