System
1.0
0.1504078623986346 4.324687731778055 -0.235726
-11.58684155408895 -0.3964239769459937 0.0
0.0 0.0 20.475774
As S
4 6
direct
0.7073612090451519 0.011064363036011299 0.5179434803176434 
0.6403584180128499 0.732532502449397 0.5261630419995037 
0.48082519162319964 0.26230116319162283 0.4772610449978645 
0.08585953914491938 0.5067222825058614 0.47410367760605254 
0.3548691198812162 0.8687025198172563 0.4721054474236864 
0.3862906859232488 0.14159430420905436 0.5627109665612393 
0.7589048801759599 0.12427317647741881 0.42712649495397975 
0.736874063484342 0.6366352315892173 0.4331044974247696 
0.2716819919695596 0.601808177032909 0.5668475831412677 
0.8449709007395564 0.37348127969125305 0.5426317655739914 
