System
1.0
3.566933224304235 0.0 -0.0
0.0 3.566933224304235 -0.0
-0.0 -0.0 9.397075454186664
Ti Cu Si As
2 2 2 2
direct
0.7500000000000001 0.7500000000000001 0.784935507022239 
0.25 0.25 0.2150644929777609 
0.25 0.7500000000000001 0.5 
0.7500000000000001 0.25 0.5 
0.25 0.7500000000000001 0.0 
0.7500000000000001 0.25 0.0 
0.7500000000000001 0.7500000000000001 0.3074869598412097 
0.25 0.25 0.6925130401587904 
