System
1.0
4.084155317570781 -1.0668253e-09 0.7814969701143276
1.220610491725006 10.078960482406687 4.68379165911536
-0.0225986115420174 -0.0217823440827324 11.18088794197207
Ce Al Pt
2 16 9
direct
0.7729758866231833 0.2270241133767581 0.22702411337675668 
0.2270241133768166 0.7729758866232419 0.7729758866232433 
0.41302533231747257 0.08697466768262302 0.0869746676826307 
0.6092469568259418 0.5088488541309232 0.2726572222159233 
0.07868697617549565 0.7500223900184196 0.09260365762985412 
0.9213130238236903 0.9073963423701478 0.24997760998156796 
0.3907530431740579 0.4911511458690767 0.727342777784077 
3.908351300980554e-13 0.6114325604750731 0.3885674395249293 
-3.9092675417696086e-13 0.3885674395249265 0.6114325604750706 
0.2038696013497933 0.1043155936215737 0.48794521367760824 
0.7961303986502066 0.8956844063784264 0.5120547863223917 
0.39075304317336657 0.7273427777840595 0.4911511458690852 
0.5869746676825269 0.9130253323173767 0.9130253323173695 
0.9213130238245042 0.24997760998158017 0.907396342370146 
0.7961303986497686 0.5120547863223823 0.8956844063784296 
0.07868697617630949 0.0926036576298526 0.7500223900184319 
0.6092469568266334 0.2726572222159407 0.5088488541309149 
0.20386960135023124 0.4879452136776175 0.10431559362157082 
0.6603198615884197 0.654873343416703 0.024486933406104826 
0.0 0.0 0.0 
0.12663226539630895 0.3733677346041817 0.37336773460418043 
0.5000000000022752 0.7420940413472576 0.2579059586527599 
0.8733677346036909 0.6266322653958185 0.6266322653958197 
0.6603198615880616 0.0244869334061086 0.6548733434166955 
0.3396801384115801 0.3451266565832974 0.9755130665938954 
0.4999999999977247 0.257905958652742 0.7420940413472402 
0.33968013841193834 0.9755130665938914 0.3451266565833046 
