System
1.0
-1.833590720595598 1.833590720595598 3.4849681632445244
1.833590720595598 -1.833590720595598 3.4849681632445244
1.833590720595598 1.833590720595598 -3.4849681632445244
Be Os Ru
2 1 1
direct
0.0 0.0 0.0 
0.2500000000000001 0.7500000000000001 0.49999999999999994 
0.5000000000000001 0.5000000000000001 3.027457132251912e-17 
0.75 0.25000000000000006 0.49999999999999994 
