System
1.0
4.839493559425439 9.711650542e-07 -8.2659482e-09
-2.4197477394300204 1.3970411289521494 4.689348110583432
2.419747734687513 -4.1911243580215105 -4.1329757e-09
Fe O F
3 3 3
direct
0.1432268964242956 0.4296806893998879 0.143226896466627 
0.3470255163443093 0.041075548887188895 0.3470255162957263 
0.6739576866664513 0.0218710599842613 0.6739576866614234 
0.06985702181908923 0.2234090456504851 0.4226003260415003 
0.42260032609601567 0.22340904573043846 0.7309516977419275 
0.7309516978403365 0.2234090457085869 0.069857021913083 
0.2720172600485725 0.7611818548508624 0.9322304762730241 
0.5569341185262024 0.7611818549153203 0.2720172600461496 
0.9322304762347267 0.7611818548729726 0.5569341185605378 
