System
1.0
10.725911963093319 1.15996857e-08 6.192607624601491
3.5753036689213147 10.112486758693379 6.19260762460149
1.20088783e-08 8.4915595e-09 12.385216217541235
Ba Na Li N
14 14 1 6
direct
0.31544648484414156 0.8948511717178177 0.8948511717180776 
0.10514882828218239 0.6845535151567129 0.10514882828149484 
0.10514882828192229 0.10514882828149491 0.6845535151554368 
0.6845535151558584 0.10514882828218239 0.10514882828192225 
0.1051488282800441 0.1051488282796167 0.10514882828115299 
0.7068764599165493 0.2931235400809447 0.2931235400823319 
0.8948511717180776 0.894851171718505 0.3154464848445629 
0.706876459918591 0.2931235400829862 0.7068764599181327 
0.8948511717178177 0.3154464848432867 0.8948511717185048 
0.2931235400811265 0.2931235400801972 0.706876459917297 
0.29312354008140906 0.7068764599170138 0.2931235400818674 
0.2931235400834508 0.7068764599190556 0.7068764599176682 
0.8948511717199564 0.8948511717203832 0.8948511717188466 
0.7068764599188737 0.7068764599198026 0.29312354008270336 
1.3204328855422072e-19 0.5 0.4999999999999999 
0.0 0.0 0.5 
0.5 0.0 -5.195197373883974e-18 
1.3204328855422072e-19 0.5 -5.195197373883974e-18 
0.5000000000000001 0.5 -1.0390394747767948e-17 
0.32895067449333054 0.3289506744933275 0.3289506744933379 
0.0131479665199807 0.3289506744933448 0.3289506744933433 
0.32895067449334486 0.0131479665199864 0.3289506744933404 
0.986852033480019 0.6710493255066551 0.6710493255066572 
0.6710493255066697 0.6710493255066723 0.6710493255066621 
0.5 0.0 0.4999999999999999 
0.32895067449334336 0.3289506744933404 0.013147966519977797 
0.6710493255066551 0.986852033480013 0.6710493255066595 
0.6710493255066573 0.6710493255066597 0.9868520334800219 
0.0 0.0 0.0 
0.14974544913562332 0.1497454491355799 0.850254550864303 
0.8502545508642679 0.1497454491356148 0.14974544913567964 
0.8502545508643767 0.8502545508644198 0.14974544913569704 
0.8502545508643635 0.1497454491357102 0.850254550864342 
0.14974544913573173 0.8502545508643851 0.8502545508643204 
0.14974544913563653 0.8502545508642896 0.14974544913565793 
