System
1.0
-6.6591637921937705 0.0100752489179631 -0.257279
-0.4341199797548945 -6.64254326449972 -0.733767
0.0 0.0 28.222509
Re Se Cl
6 8 2
direct
0.8214011546275277 0.3485379943559211 0.20722131174132488 
0.6785998763673665 0.1514624599817266 0.0795446954659623 
0.005110512151838501 0.2968904207273367 0.1233252273438536 
0.494889588971529 0.20311018554737248 0.1634406903149157 
0.8417003942624253 0.9897626174607747 0.1541790580316208 
0.6583002224058779 0.5102391249017227 0.1325873809074926 
0.0168554893185377 0.953790295718295 0.0747708038962929 
0.15045104887411803 0.1259715522359494 0.1999536948082405 
0.9944990810969989 0.633838656793489 0.1748111030993721 
0.5055010331629538 0.8661626686077363 0.111956086977682 
0.6648136165927439 0.0449235591235229 0.2336589444470166 
0.4831454841660173 0.5462082346630606 0.211995846671689 
0.3495501136178529 0.37402787197959453 0.086812699630186 
0.8351852925844945 0.455077871679643 0.0531073144393407 
0.9122816597154116 0.4730211248227029 0.2858021883493805 
0.5877154320843069 0.0269753614011534 0.0009649538756343002 
