System
1.0
7.091458561131444 0.0 0.0
0.0 12.284128695721973 0.0
-8.862874621478095 0.0 25.0
Y Br
4 12
direct
0.033346999999999086 0.6240773822144681 0.1871170000000006 
0.033346999999999086 0.9574286177855293 0.1871170000000006 
0.5333479999999966 0.12407738221446811 0.1871170000000006 
0.5333479999999966 0.4574286177855292 0.1871170000000006 
0.2891270840017781 0.46667191911829303 0.2510176333839372 
0.2891270840017781 0.11483508088170911 0.2510176333839372 
0.2613405348547832 0.7907530000000023 0.2510114569972214 
0.7891270840017786 0.9666709191182953 0.2510176333839372 
0.7891270840017786 0.6148350808817092 0.2510176333839372 
0.7613405348547837 0.2907530000000023 0.2510114569972214 
0.30535446514521963 0.2907530000000023 0.1232235430027774 
0.2775679159982247 0.9666709191182953 0.123216366616057 
0.2775679159982247 0.6148350808817092 0.123216366616057 
0.8053554651452168 0.7907530000000023 0.1232235430027774 
0.7775679159982244 0.46667191911829303 0.123216366616057 
0.7775679159982244 0.11483508088170911 0.123216366616057 
