System
1.0
6.9098665629767275 0.1286262909266546 -2.570460645968909
-1.9404094646912355 4.803607055787978 4.676294800029834
2.00291479304321 -4.798810132987134 4.609377888841407
Na Cr O
4 4 14
direct
0.6769749789249806 0.9400489797042266 0.6229314608811622 
0.3230250210750203 0.059951020295773115 0.3770685391188375 
0.2506181370395198 0.3650750334341273 0.841270548538591 
0.7493818629604807 0.6349249665658725 0.158729451461409 
0.19996593494388792 0.8251875542329714 0.8696094722663035 
0.8000340650561117 0.17481244576702934 0.1303905277336964 
0.7608546300002266 0.50774736339615 0.6561347699973915 
0.239145369999773 0.49225263660385066 0.3438652300026082 
0.20889858089823077 0.32380581267264685 0.503013237548403 
0.7911014191017697 0.6761941873273539 0.49698676245159656 
0.3749083370005915 0.4562402211841992 0.1690572424042489 
0.6250916629994067 0.5437597788158011 0.8309427575957513 
0.353422139161524 0.7466774346567879 0.4419054676388132 
0.6465778608384745 0.2533225653432131 0.5580945323611879 
0.23679784005454194 0.02147215909092527 0.7412115023147688 
0.12282604988784103 0.8655716269615095 0.08634011080516024 
0.7632021599454576 0.9785278409090822 0.25878849768523005 
0.0035919418281296833 0.5686991194852841 0.7538434681119827 
0.5968865687275696 0.20822884116853055 0.12275067404711983 
0.4031134312724304 0.7917711588314686 0.8772493259528806 
0.8771739501121584 0.13442837303849053 0.9136598891948384 
-0.0035919418281300038 0.4313008805147168 0.24615653188801642 
