System
1.0
3.7629580231134514 0.0 0.0
0.0 6.87602212656798 0.0
0.0 0.0 24.412573
Zr I
2 4
direct
0.5 0.1154353493985894 0.08829698245065609 
0.0 0.4917047269327905 0.0924475019194387 
0.0 0.8823569929696923 0.1578891995509505 
0.0 0.2222252677985402 -4.63096505806e-05 
0.5 0.7247855293792334 0.0228593595093789 
0.5 0.3849141335211457 0.1807922662201586 
