System
1.0
7.709535704177289 2.46207e-11 -2.7257318539859394
-3.8547673520343277 6.676653550671134 -2.7257318539859394
2.33229e-11 4.03965e-11 8.177196562089774
Sm Sb Os
1 12 4
direct
0.0 0.0 0.0 
0.8440272777954052 0.1820018570408906 0.33797357924548915 
0.155972722204595 0.8179981429591096 0.662026420754511 
0.8440272777954048 0.506053698549916 0.6620264207545123 
0.6620264207545109 0.155972722204595 0.8179981429591094 
0.3379735792454887 0.15597272220459563 0.49394630145008395 
0.15597272220459527 0.4939463014500838 0.3379735792454878 
0.5060536985499166 0.662026420754512 0.8440272777954045 
0.49394630145008334 0.33797357924548804 0.15597272220459568 
0.1820018570408914 0.3379735792454889 0.8440272777954052 
0.6620264207545112 0.8440272777954044 0.506053698549916 
0.33797357924548904 0.8440272777954052 0.18200185704089067 
0.8179981429591086 0.662026420754511 0.1559727222045947 
-5.915835833105713e-19 0.5 1.1836638972071158e-17 
0.49999999999999994 0.5 0.5 
0.0 0.0 0.5 
0.49999999999999994 0.0 -1.5918936643557756e-17 
