System
1.0
3.4778329262343175 0.0 0.0
0.0 6.358483588462181 0.0
0.0 0.0 33.313518
Te Mo
4 2
direct
0.0 0.8619395170563143 0.265114140987848 
0.5 0.3542564560720641 0.2477025193288425 
0.5 0.7037042860282603 0.1405475827636373 
0.0 0.21138102417993898 0.1579592289166588 
0.0 0.6021177544583993 0.1999411686092298 
0.5 0.9635209622050152 0.2057283593937858 
