System
1.0
3.4878362323679837 3.6597344e-09 0.0
-1.7439186098402102 3.020554822453009 0.0
0.0 0.0 25.743165
Sc H Cl
2 2 2
direct
0.6666669999999968 0.3333330000000032 0.45082619084199527 
0.33333300000000327 0.6666669999999969 0.5491738091580051 
0.6666669999999968 0.3333330000000032 0.5287351839124973 
0.33333300000000327 0.6666669999999969 0.47126481608750276 
0.0 0.0 0.3881804432720387 
0.0 0.0 0.6118195567279613 
