System
1.0
1.6712283e-08 -2.508029669761222 3.5458136263853106
-2.172017276374766 1.254014874098203 3.545813646368687
-2.17201803290572 -1.254014795663004 -3.5458136064019246
Xe
1
direct
0.0 0.0 0.0 
