System
1.0
-3.2849719315437826 -6.289361e-10 0.0
1.6424864631140141 -9.068899402058411 -1.254343
0.0 0.0 23.688514
Ta Pd S
2 1 6
direct
0.1470268916499685 0.2940537832999092 0.058460920784649 
0.8529731083500315 0.7059462167000907 0.0972480792153527 
0.5 0.0 0.0778540000000021 
0.7327377347077687 0.46547546941556817 0.0226833907048882 
0.617981269132093 0.23596253826411556 0.1319858311303713 
0.5669134577143131 0.1338269154285202 -0.00027846686807290024 
0.267262265292231 0.5345245305844317 0.1330246092951089 
0.38201873086790694 0.7640374617358845 0.023723168869630402 
0.43308654228568677 0.8661730845714798 0.1559874668680745 
