System
1.0
0.0 5.129874508851702 5.129874508851702
5.129874508851702 -0.0 5.129874508851702
5.129874508851702 5.129874508851702 0.0
Ba Li Hf
4 1 1
direct
0.12806946960819965 0.623976510130601 0.623976510130601 
0.623976510130601 0.623976510130601 0.623976510130601 
0.6239765101306008 0.12806946960819962 0.623976510130601 
0.623976510130601 0.623976510130601 0.12806946960819957 
0.0 0.0 0.0 
0.25 0.25 0.25 
