System
1.0
4.284492173131309 1.636192e-10 2.4736525652019936
1.428164057864698 4.039456881219389 2.4736525652019936
4.62785e-10 3.272383e-10 4.947304128800708
Lu Ni Sn
1 4 1
direct
0.0 0.0 0.0 
0.6248769596428021 0.6248769596427668 0.12536912107166331 
0.6248769596427768 0.1253691210716623 0.6248769596427667 
0.12536912107159173 0.6248769596427769 0.6248769596428019 
0.6248769596428222 0.6248769596427868 0.6248769596427602 
0.25 0.25 0.25 
