System
1.0
3.5666343258756448 0.0 0.0
0.0 3.60492483256326 -1.0516480500920402
0.0 0.0043800721536433 3.7551864245512623
Y Co C
1 1 2
direct
0.0 0.9970518040927455 0.00294819590736377 
0.5 0.6150401254054609 0.3849598745944179 
0.5 0.15192770422861318 0.5440196337270639 
0.5 0.4559803662731792 0.8480722957711558 
