Al4
1.0
4.06741 0.0 0.0
0.0 4.06741 0.0
0.0 0.0 4.06741
Al
4
Cartesian
0.0 0.0 0.0
0.0 2.033705 2.033705
2.033705 0.0 2.033705
2.033705 2.033705 0.0

