O3N2H32Zn4C54
1.0
19.077068000000008 0.0 0.0
0.8508174300693016 21.378431310007635 0.0
0.8749359060993567 -0.018399602000223617 21.377456905018153
Zn H C N O
4 32 54 2 31
Cartesian
8.857728949907575 13.48040348155624 17.93231231997029
6.709444304456688 15.809035605607065 18.022781271406185
9.038169631223319 15.716905520188856 20.17093856663331
6.711333922352488 13.566711840342032 20.262861578231828
9.04106769877103 5.654926418276618 17.395653260958394
9.01093071407254 13.037037381518116 11.398526303116368
9.631733943794693 5.128736270908334 18.81462516703744
9.528032986763984 12.186649268715197 4.738249924553846
4.750675498833119 16.310086713975537 11.658753344277567
7.19708799526984 18.011825623610253 7.691395831241445
8.336705778715235 12.122511926609011 6.280569533881186
4.104855028011563 0.47526418553954053 0.1944922216005361
9.470577712920146 12.190048137772127 3.27316694405746
15.113966424131869 16.729944400830515 21.18878427948753
8.391361939555054 1.6806002222293994 16.589124669465654
12.799380520861927 12.888092257613504 17.336608484281772
4.451506891113358 9.104198609483795 0.19436320045872862
2.8454776504074606 16.397963690300134 20.860104393260894
19.137773664135985 13.398208765627109 17.851570860826993
7.336683867575199 16.84880778469851 9.689675583054315
13.04842042245906 15.990162881360215 20.44621658898805
16.602572071960072 12.652468845688142 17.101820288545785
6.12814687651838 16.26312456112757 14.060746506187254
6.0338806954005 7.052825967107966 20.716320822091323
5.272279462627176 5.303766639862819 19.379930241409145
5.1704212760727595 2.7659113965480167 19.37997321880021
4.897208851247501 20.388654640538565 0.1948111371221216
9.545560973977754 18.40433974478578 17.39593004950848
10.704766868917092 3.0811281298555016 18.669280118730917
9.880800248538595 8.902952097824958 16.625337597630107
7.552183705615367 12.454672756231963 9.678581111522268
9.883084289762884 12.182365105729543 13.36683491087114
19.386621117517244 16.500215235673657 20.961200342978493
4.885611981010477 15.929124756894062 6.291770567146662
1.9947416880761526 12.497029013774418 16.949589681854512
5.668891175013605 16.26884485354869 2.894314741306389
8.42347603101648 8.928377748493004 18.207184094499215
8.630859974411939 4.598567852651723 18.944215272511954
8.574756596014124 3.199734070081827 18.944365037371004
12.794045897906125 14.444424968181067 18.896585866679484
7.345173014368083 2.5484351882746514 19.099095022372115
6.171673688563558 3.2961622557378862 19.25395314949879
6.227800494609971 4.695017343141169 19.253888894488096
7.4575211127496726 5.346166778314598 19.098923757436044
8.367350099910146 7.529522642689721 18.20726972697191
13.561495160144121 15.271078056385555 19.725732117433324
8.87182176971436 20.278850437065312 18.207567892989253
11.306419572775038 14.504319090761038 18.95584401087532
7.272302670175734 14.653856094881183 5.499693247039938
6.420193483435476 15.543643040769517 4.834682980218986
6.362580548862482 15.544376700947454 3.4358701318214093
8.008952929447391 13.765322593014801 3.367184704367601
8.066649002967864 13.764738563470608 4.766018930223011
7.449689144696366 14.651746025838454 9.81404987256497
7.229669219143515 20.3447860840837 19.99059765830188
6.435119284090257 0.36525040656669816 19.99068492040838
7.518289876599368 6.862987969180378 19.098966379383082
6.781559356564294 8.99435604197814 19.990342124606958
14.959268876979209 15.214665508857461 19.670086753427608
15.589554230129963 14.331664082025066 18.785209628809966
7.480402291922279 13.441005820170657 9.111629345098066
14.821985376440368 13.504904120053624 17.95604200059006
13.424251611869725 13.561273837114925 18.011772874451996
19.76252941778272 14.07139036352854 18.526713873521775
2.083293533511444 14.01512752216184 18.47100213754926
2.2204816728214394 15.72486751413229 20.18506826783948
6.725315487398629 7.595479612941482 19.99036362468209
19.899772966057114 15.781194582799175 20.2406731165031
7.096453424361139 14.657117855358235 1.2133624741319053
7.157054393053079 14.655173711003298 2.702131682641662
7.68989050208559 11.149535425541364 19.098346057179374
7.630543464570216 9.660719540820331 19.09881649189781
4.338335221864095 14.78246490148808 19.239500709026746
2.8507618728196062 14.841780610366325 19.300148388305335
7.966959261814435 18.123438172334613 19.0969131555707
8.022646987494705 19.612401350889563 19.099179035531492
19.13233855092073 14.95441320559432 19.411548243224754
7.422865665629943 13.441739480348586 7.712816496709446
7.2842404072256794 1.0316352286422694 19.099223420099037
7.306556731425139 15.863696881861104 7.718994345823174
7.334650642979586 14.653127832460733 7.0164241757997114
8.077153896601775 0.2992934363149406 18.2075910226982
7.627218900901105 14.649379397194991 14.128427875592415
8.421629319692528 13.76039009958477 13.394796313694954
7.687509172489983 14.647777307774376 15.617197084034103
7.512166451144773 14.650868077584239 11.33082355627754
6.717574813626693 15.539921363294647 12.06462613784297
6.7751114399190335 15.539187703116722 13.463438986231585
7.36382367803692 15.862941880049817 9.117764439258316
8.364030333159082 13.761016885995739 11.995962087846998
17.703610155021018 15.012000389362063 19.468561761049216
17.018301799587732 14.273991310923746 18.728281620843237
8.496460077829568 13.791737177533726 16.06997190098844
10.754520601581712 13.702399651601949 18.152927928885408
10.887094254696786 15.345541396258561 19.797624200939932
6.921338438817858 11.6808437614071 19.954299492108937
8.498290339156904 11.617433982430464 18.24205049523943
8.803973452243167 17.603541513172296 19.88537822888965
7.093073702782064 17.671237209084335 18.30714414254161
4.838217636364239 13.93884387832084 20.04205352005866
7.930864506722758 15.44763830138903 0.6800162022759043
4.83682523822718 15.586271521512852 18.396288086355383
5.563476844849908 16.502789562444494 5.625884033201728
6.221357155398713 13.86790635410906 0.7475475496311306
6.918114904413383 15.502574618102376 16.136434086692674
8.992823858359914 1.018308104502692 17.246096960175482
5.7989302627243555 16.499725130489246 11.34709143287013
15.78708325296468 16.106338575499404 20.564263244343383
7.455551268464358 12.135848453985432 6.955391768810271
5.5798112290379835 1.1552966131230873 20.95215747316152
5.926327754524522 9.784273867534148 20.95194294215229
7.208928026293167 17.17015945601059 6.967897090039657
8.985460021983156 12.80491350984261 5.48344674790789
8.867663253164208 12.808143126411803 2.5757057444325917
15.501695694284939 12.552632436127817 17.00145298493725
6.313935880230151 19.62594231456308 20.952241363034627
9.72715738589589 19.48903941167625 17.246073962755734
9.840361361316473 2.3932696476460578 18.7772148858938
9.222642432920734 6.739604743533699 17.245754419281283
9.33889536328444 9.647243098847062 17.24530523764678
9.340452440379305 12.800543796323385 14.11207448914996
2.7631949115213463 13.062599076235278 17.516669651485323
7.82917353378252 14.643264121123549 19.09721274532997

