Al2
1.0
3.26399 0.0 0.0
0.0 3.26399 0.0
0.0 0.0 3.26399
Al
2
Cartesian
0.0 0.0 0.0
1.631995 1.631995 1.631995

