Al
1.0
2.4907700981617955 -1.4394159e-09 1.4380466239515413
0.8302566980301707 2.348320626706396 1.438046623951541
-4.0712845e-09 -2.878833e-09 2.8760942620064256
Al
1
Cartesian
0.0 0.0 0.0
