Al4O6
1.0
4.253255599774612 -0.0011343765684713 2.94300731057024
1.541858721105255 3.963944319736534 2.943006924432697
-0.0016591490976551 -0.0011346142113319 5.172181923360239
Al O
4 6
Cartesian
3.752634939834702 2.566123983859001 7.162796489886124
4.937556494128162 3.37639665986629 9.424503357100216
0.8559048131793948 0.5852841675191416 1.6336962577356697
2.040826137898389 1.3955567148399188 3.895402322542909
1.9733553931812493 0.22091245126772005 5.350640134181611
4.399319088512879 0.9892904214065957 6.389843718224711
1.394141923908782 2.9723904285592018 4.668355192287564
3.8743295023397937 1.758798762665216 3.803753825907229
1.919131734641725 2.2028820978419414 7.254445356129261
3.820105770814909 3.7407682772449635 5.707558887664717
